; CALLVALUE SWAP1 DUP2 SWAP1 SSTORE => CALLVALUE SWAP1 SSTORE CALLVALUE
(set-option :produce-proofs true)
; 
(set-info :status unknown)
(declare-fun storage_t ((_ BitVec 256) (_ BitVec 256) (_ BitVec 256) Int (_ BitVec 256)) (_ BitVec 256))
(declare-fun storage_s ((_ BitVec 256) (_ BitVec 256) (_ BitVec 256) Int (_ BitVec 256)) (_ BitVec 256))
(declare-fun exc_halt_t (Int) Bool)
(declare-fun exc_halt_s (Int) Bool)
(declare-fun stack_t ((_ BitVec 256) (_ BitVec 256) (_ BitVec 256) Int (_ BitVec 6)) (_ BitVec 256))
(declare-fun stack_s ((_ BitVec 256) (_ BitVec 256) (_ BitVec 256) Int (_ BitVec 6)) (_ BitVec 256))
(declare-fun sc_t (Int) (_ BitVec 6))
(declare-fun sc_s (Int) (_ BitVec 6))
(declare-fun used_gas_t ((_ BitVec 256) (_ BitVec 256) (_ BitVec 256) Int) Int)
(declare-fun used_gas_s ((_ BitVec 256) (_ BitVec 256) (_ BitVec 256) Int) Int)
(assert
 (exists ((x_0 (_ BitVec 256)) (x_SSTORE_0 (_ BitVec 256)) (x_CALLVALUE (_ BitVec 256)) )(let (($x6795 (forall ((w (_ BitVec 256)) )(let ((?x10146 (storage_t x_0 x_SSTORE_0 x_CALLVALUE 4 w)))
 (let ((?x696 (storage_s x_0 x_SSTORE_0 x_CALLVALUE 5 w)))
 (= ?x696 ?x10146))))
 ))
 (let (($x7854 (exc_halt_t 4)))
 (let (($x1862 (exc_halt_s 5)))
 (let (($x1994 (= $x1862 $x7854)))
 (let (($x10490 (forall ((n (_ BitVec 6)) )(let ((?x2830 (stack_t x_0 x_SSTORE_0 x_CALLVALUE 4 n)))
 (let ((?x5538 (stack_s x_0 x_SSTORE_0 x_CALLVALUE 5 n)))
 (let (($x11250 (= ?x5538 ?x2830)))
 (let ((?x7495 (sc_t 4)))
 (let (($x3509 (bvsle ?x7495 n)))
 (or $x3509 $x11250)))))))
 ))
 (let ((?x7495 (sc_t 4)))
 (let ((?x4319 (sc_s 5)))
 (let (($x3074 (= ?x4319 ?x7495)))
 (let ((?x4512 (used_gas_t x_0 x_SSTORE_0 x_CALLVALUE 0)))
 (let ((?x2572 (used_gas_s x_0 x_SSTORE_0 x_CALLVALUE 0)))
 (let (($x9627 (= ?x2572 ?x4512)))
 (let (($x1215 (forall ((w (_ BitVec 256)) )(let ((?x6460 (storage_t x_0 x_SSTORE_0 x_CALLVALUE 0 w)))
 (let ((?x10349 (storage_s x_0 x_SSTORE_0 x_CALLVALUE 0 w)))
 (= ?x10349 ?x6460))))
 ))
 (let (($x56 (exc_halt_t 0)))
 (let (($x57 (exc_halt_s 0)))
 (let (($x58 (= $x57 $x56)))
 (let (($x6728 (forall ((n (_ BitVec 6)) )(let ((?x63 (sc_t 0)))
 (let (($x9079 (bvsle ?x63 n)))
 (let ((?x8866 (stack_t x_0 x_SSTORE_0 x_CALLVALUE 0 n)))
 (let ((?x4798 (stack_s x_0 x_SSTORE_0 x_CALLVALUE 0 n)))
 (let (($x6881 (= ?x4798 ?x8866)))
 (or $x6881 $x9079)))))))
 ))
 (let ((?x63 (sc_t 0)))
 (let ((?x72 (sc_s 0)))
 (let (($x73 (= ?x72 ?x63)))
 (let (($x9131 (exc_halt_t 3)))
 (let (($x1565 (or $x9131 (not (= ((_ extract 6 6) (bvadd (_ bv1 7) (concat (_ bv0 1) (sc_t 3)))) (_ bv0 1))))))
 (let (($x4304 (= $x7854 $x1565)))
 (let (($x6817 (forall ((w (_ BitVec 256)) )(let ((?x1736 (storage_t x_0 x_SSTORE_0 x_CALLVALUE 3 w)))
 (let ((?x10146 (storage_t x_0 x_SSTORE_0 x_CALLVALUE 4 w)))
 (= ?x10146 ?x1736))))
 ))
 (let (($x6710 (forall ((n (_ BitVec 6)) )(let ((?x10013 (sc_t 3)))
 (let (($x2843 (bvsle ?x10013 n)))
 (let ((?x7109 (stack_t x_0 x_SSTORE_0 x_CALLVALUE 3 n)))
 (let ((?x2830 (stack_t x_0 x_SSTORE_0 x_CALLVALUE 4 n)))
 (or (= ?x2830 ?x7109) $x2843))))))
 ))
 (let (($x7253 (= ?x7495 (bvadd (_ bv1 6) (sc_t 3)))))
 (let (($x7714 (= (used_gas_t x_0 x_SSTORE_0 x_CALLVALUE 4) (+ 2 (used_gas_t x_0 x_SSTORE_0 x_CALLVALUE 3)))))
 (let (($x5844 (= $x9131 (or (exc_halt_t 2) (not (bvsle (_ bv0 6) (bvadd (_ bv62 6) (sc_t 2))))))))
 (let (($x2444 (forall ((n (_ BitVec 6)) )(let ((?x11248 (sc_t 2)))
 (let ((?x5841 (bvadd (_ bv62 6) ?x11248)))
 (let (($x7314 (bvsle ?x5841 n)))
 (let ((?x1369 (stack_t x_0 x_SSTORE_0 x_CALLVALUE 2 n)))
 (let ((?x7109 (stack_t x_0 x_SSTORE_0 x_CALLVALUE 3 n)))
 (or (= ?x7109 ?x1369) $x7314)))))))
 ))
 (let ((?x11248 (sc_t 2)))
 (let ((?x5841 (bvadd (_ bv62 6) ?x11248)))
 (let ((?x1948 (stack_t x_0 x_SSTORE_0 x_CALLVALUE 2 ?x5841)))
 (let (($x10072 (= ?x1948 (_ bv0 256))))
 (let ((?x4064 (bvadd (_ bv63 6) ?x11248)))
 (let ((?x4320 (stack_t x_0 x_SSTORE_0 x_CALLVALUE 2 ?x4064)))
 (let ((?x7385 (ite (= (storage_t x_0 x_SSTORE_0 x_CALLVALUE 2 ?x4320) (_ bv0 256)) (ite $x10072 5000 20000) (ite $x10072 (- 10000) 5000))))
 (let ((?x7605 (used_gas_t x_0 x_SSTORE_0 x_CALLVALUE 2)))
 (let ((?x10299 (used_gas_t x_0 x_SSTORE_0 x_CALLVALUE 3)))
 (let (($x1135 (forall ((w (_ BitVec 256)) )(let ((?x11576 (storage_t x_0 x_SSTORE_0 x_CALLVALUE 2 w)))
 (let ((?x11449 (ite (= w (stack_t x_0 x_SSTORE_0 x_CALLVALUE 2 (bvadd (_ bv63 6) (sc_t 2)))) (stack_t x_0 x_SSTORE_0 x_CALLVALUE 2 (bvadd (_ bv62 6) (sc_t 2))) ?x11576)))
 (let ((?x1736 (storage_t x_0 x_SSTORE_0 x_CALLVALUE 3 w)))
 (= ?x1736 ?x11449)))))
 ))
 (let (($x4057 (exc_halt_t 2)))
 (let (($x8101 (= $x4057 (or (exc_halt_t 1) (not (bvsle (_ bv0 6) (bvadd (_ bv62 6) (sc_t 1))))))))
 (let (($x10511 (forall ((w (_ BitVec 256)) )(let ((?x639 (storage_t x_0 x_SSTORE_0 x_CALLVALUE 1 w)))
 (let ((?x11576 (storage_t x_0 x_SSTORE_0 x_CALLVALUE 2 w)))
 (= ?x11576 ?x639))))
 ))
 (let (($x10359 (forall ((n (_ BitVec 6)) )(let ((?x10817 (stack_t x_0 x_SSTORE_0 x_CALLVALUE 1 n)))
 (let ((?x1369 (stack_t x_0 x_SSTORE_0 x_CALLVALUE 2 n)))
 (let (($x8779 (= ?x1369 ?x10817)))
 (or (bvsle (bvadd (_ bv62 6) (sc_t 1)) n) $x8779)))))
 ))
 (let ((?x9666 (sc_t 1)))
 (let (($x5665 (= ?x11248 ?x9666)))
 (let (($x2770 (= ?x7605 (+ 3 (used_gas_t x_0 x_SSTORE_0 x_CALLVALUE 1)))))
 (let (($x4852 (exc_halt_t 1)))
 (let (($x3469 (= $x4852 (or $x56 (not (= ((_ extract 6 6) (bvadd (_ bv1 7) (concat (_ bv0 1) ?x63))) (_ bv0 1)))))))
 (let (($x6061 (forall ((w (_ BitVec 256)) )(let ((?x6460 (storage_t x_0 x_SSTORE_0 x_CALLVALUE 0 w)))
 (let ((?x639 (storage_t x_0 x_SSTORE_0 x_CALLVALUE 1 w)))
 (= ?x639 ?x6460))))
 ))
 (let (($x747 (forall ((n (_ BitVec 6)) )(let ((?x8866 (stack_t x_0 x_SSTORE_0 x_CALLVALUE 0 n)))
 (let ((?x10817 (stack_t x_0 x_SSTORE_0 x_CALLVALUE 1 n)))
 (let (($x11928 (= ?x10817 ?x8866)))
 (let ((?x63 (sc_t 0)))
 (let (($x9079 (bvsle ?x63 n)))
 (or $x9079 $x11928)))))))
 ))
 (let (($x9898 (= ?x9666 (bvadd (_ bv1 6) ?x63))))
 (let (($x6195 (= $x1862 (or (exc_halt_s 4) (not (bvsle (_ bv0 6) (bvadd (_ bv62 6) (sc_s 4))))))))
 (let (($x6491 (forall ((n (_ BitVec 6)) )(let ((?x3308 (stack_s x_0 x_SSTORE_0 x_CALLVALUE 4 n)))
 (let ((?x5538 (stack_s x_0 x_SSTORE_0 x_CALLVALUE 5 n)))
 (or (= ?x5538 ?x3308) (bvsle (bvadd (_ bv62 6) (sc_s 4)) n)))))
 ))
 (let ((?x9433 (sc_s 4)))
 (let ((?x9053 (bvadd (_ bv62 6) ?x9433)))
 (let ((?x5520 (stack_s x_0 x_SSTORE_0 x_CALLVALUE 4 ?x9053)))
 (let (($x9153 (= ?x5520 (_ bv0 256))))
 (let ((?x6083 (bvadd (_ bv63 6) ?x9433)))
 (let ((?x4153 (stack_s x_0 x_SSTORE_0 x_CALLVALUE 4 ?x6083)))
 (let ((?x6386 (ite (= (storage_s x_0 x_SSTORE_0 x_CALLVALUE 4 ?x4153) (_ bv0 256)) (ite $x9153 5000 20000) (ite $x9153 (- 10000) 5000))))
 (let ((?x11022 (used_gas_s x_0 x_SSTORE_0 x_CALLVALUE 4)))
 (let (($x6862 (forall ((w (_ BitVec 256)) )(let ((?x6833 (storage_s x_0 x_SSTORE_0 x_CALLVALUE 4 w)))
 (let (($x1380 (= w (stack_s x_0 x_SSTORE_0 x_CALLVALUE 4 (bvadd (_ bv63 6) (sc_s 4))))))
 (let ((?x4559 (ite $x1380 (stack_s x_0 x_SSTORE_0 x_CALLVALUE 4 (bvadd (_ bv62 6) (sc_s 4))) ?x6833)))
 (let ((?x696 (storage_s x_0 x_SSTORE_0 x_CALLVALUE 5 w)))
 (= ?x696 ?x4559))))))
 ))
 (let (($x9175 (exc_halt_s 4)))
 (let (($x1118 (= $x9175 (or (exc_halt_s 3) (not (bvsle (_ bv0 6) (bvadd (_ bv62 6) (sc_s 3))))))))
 (let (($x10464 (forall ((w (_ BitVec 256)) )(let ((?x2637 (storage_s x_0 x_SSTORE_0 x_CALLVALUE 3 w)))
 (let ((?x6833 (storage_s x_0 x_SSTORE_0 x_CALLVALUE 4 w)))
 (= ?x6833 ?x2637))))
 ))
 (let (($x9207 (forall ((n (_ BitVec 6)) )(let ((?x3851 (sc_s 3)))
 (let ((?x1039 (bvadd (_ bv62 6) ?x3851)))
 (let (($x11348 (bvsle ?x1039 n)))
 (let ((?x10114 (stack_s x_0 x_SSTORE_0 x_CALLVALUE 3 n)))
 (let ((?x3308 (stack_s x_0 x_SSTORE_0 x_CALLVALUE 4 n)))
 (let (($x6875 (= ?x3308 ?x10114)))
 (or $x6875 $x11348))))))))
 ))
 (let ((?x3851 (sc_s 3)))
 (let (($x9390 (= ?x9433 ?x3851)))
 (let (($x6555 (= ?x11022 (+ 3 (used_gas_s x_0 x_SSTORE_0 x_CALLVALUE 3)))))
 (let (($x11311 (not (= ((_ extract 6 6) (bvadd (_ bv1 7) (concat (_ bv0 1) (sc_s 2)))) (_ bv0 1)))))
 (let (($x10052 (exc_halt_s 2)))
 (let (($x7460 (not (bvsle (_ bv0 6) (bvadd (_ bv62 6) (sc_s 2))))))
 (let (($x8103 (exc_halt_s 3)))
 (let (($x4226 (= $x8103 (or $x7460 $x10052 $x11311))))
 (let (($x5461 (forall ((w (_ BitVec 256)) )(let ((?x11987 (storage_s x_0 x_SSTORE_0 x_CALLVALUE 2 w)))
 (let ((?x2637 (storage_s x_0 x_SSTORE_0 x_CALLVALUE 3 w)))
 (= ?x2637 ?x11987))))
 ))
 (let (($x3395 (forall ((n (_ BitVec 6)) )(let ((?x5071 (stack_s x_0 x_SSTORE_0 x_CALLVALUE 2 n)))
 (let ((?x10114 (stack_s x_0 x_SSTORE_0 x_CALLVALUE 3 n)))
 (let ((?x2272 (sc_s 2)))
 (let ((?x9266 (bvadd (_ bv62 6) ?x2272)))
 (let (($x9051 (bvsle ?x9266 n)))
 (or $x9051 (= ?x10114 ?x5071))))))))
 ))
 (let (($x10998 (= ?x3851 (bvadd (_ bv1 6) (sc_s 2)))))
 (let ((?x2540 (used_gas_s x_0 x_SSTORE_0 x_CALLVALUE 3)))
 (let (($x11979 (= ?x2540 (+ 3 (used_gas_s x_0 x_SSTORE_0 x_CALLVALUE 2)))))
 (let ((?x2272 (sc_s 2)))
 (let ((?x5528 (bvadd (_ bv63 6) ?x2272)))
 (let ((?x7739 (stack_s x_0 x_SSTORE_0 x_CALLVALUE 2 ?x5528)))
 (let ((?x9266 (bvadd (_ bv62 6) ?x2272)))
 (let ((?x5012 (stack_s x_0 x_SSTORE_0 x_CALLVALUE 2 ?x9266)))
 (let (($x6775 (= $x10052 (or (exc_halt_s 1) (not (bvsle (_ bv0 6) (bvadd (_ bv62 6) (sc_s 1))))))))
 (let (($x3215 (forall ((w (_ BitVec 256)) )(let ((?x5507 (storage_s x_0 x_SSTORE_0 x_CALLVALUE 1 w)))
 (let ((?x11987 (storage_s x_0 x_SSTORE_0 x_CALLVALUE 2 w)))
 (= ?x11987 ?x5507))))
 ))
 (let (($x6593 (forall ((n (_ BitVec 6)) )(let ((?x7071 (stack_s x_0 x_SSTORE_0 x_CALLVALUE 1 n)))
 (let ((?x5071 (stack_s x_0 x_SSTORE_0 x_CALLVALUE 2 n)))
 (let (($x9563 (= ?x5071 ?x7071)))
 (let ((?x154 (sc_s 1)))
 (let ((?x5195 (bvadd (_ bv62 6) ?x154)))
 (let (($x7363 (bvsle ?x5195 n)))
 (or $x7363 $x9563))))))))
 ))
 (let ((?x154 (sc_s 1)))
 (let (($x2223 (= ?x2272 ?x154)))
 (let ((?x9807 (used_gas_s x_0 x_SSTORE_0 x_CALLVALUE 2)))
 (let (($x11106 (= ?x9807 (+ 3 (used_gas_s x_0 x_SSTORE_0 x_CALLVALUE 1)))))
 (let (($x8780 (exc_halt_s 1)))
 (let (($x5465 (= $x8780 (or $x57 (not (= ((_ extract 6 6) (bvadd (_ bv1 7) (concat (_ bv0 1) ?x72))) (_ bv0 1)))))))
 (let (($x5479 (forall ((w (_ BitVec 256)) )(let ((?x10349 (storage_s x_0 x_SSTORE_0 x_CALLVALUE 0 w)))
 (let ((?x5507 (storage_s x_0 x_SSTORE_0 x_CALLVALUE 1 w)))
 (= ?x5507 ?x10349))))
 ))
 (let (($x2202 (forall ((n (_ BitVec 6)) )(let ((?x4798 (stack_s x_0 x_SSTORE_0 x_CALLVALUE 0 n)))
 (let ((?x7071 (stack_s x_0 x_SSTORE_0 x_CALLVALUE 1 n)))
 (let ((?x72 (sc_s 0)))
 (let (($x4347 (bvsle ?x72 n)))
 (or $x4347 (= ?x7071 ?x4798)))))))
 ))
 (let (($x10888 (= ?x154 (bvadd (_ bv1 6) ?x72))))
 (let (($x53 (forall ((w (_ BitVec 256)) )(let (($x1380 (= w (stack_s x_0 x_SSTORE_0 x_CALLVALUE 4 (bvadd (_ bv63 6) (sc_s 4))))))
 (let ((?x10349 (storage_s x_0 x_SSTORE_0 x_CALLVALUE 0 w)))
 (= ?x10349 (ite $x1380 x_SSTORE_0 (_ bv0 256))))))
 ))
 (let (($x10605 (= ?x2572 0)))
 (let (($x10995 (not $x57)))
 (let (($x11568 (= (stack_s x_0 x_SSTORE_0 x_CALLVALUE 0 (_ bv0 6)) x_0)))
 (let (($x7461 (= ?x72 (_ bv1 6))))
 (and $x7461 $x11568 $x10995 $x10605 $x53 (= (stack_s x_0 x_SSTORE_0 x_CALLVALUE 1 ?x72) x_CALLVALUE) (= (used_gas_s x_0 x_SSTORE_0 x_CALLVALUE 1) (+ 2 ?x2572)) $x10888 $x2202 $x5479 $x5465 (= ?x7739 (stack_s x_0 x_SSTORE_0 x_CALLVALUE 1 (bvadd (_ bv62 6) ?x154))) (= ?x5012 (stack_s x_0 x_SSTORE_0 x_CALLVALUE 1 (bvadd (_ bv63 6) ?x154))) $x11106 $x2223 $x6593 $x3215 $x6775 (= (stack_s x_0 x_SSTORE_0 x_CALLVALUE 3 (bvadd (_ bv63 6) ?x3851)) ?x5012) (= (stack_s x_0 x_SSTORE_0 x_CALLVALUE 3 ?x9266) ?x5012) (= (stack_s x_0 x_SSTORE_0 x_CALLVALUE 3 ?x5528) ?x7739) $x11979 $x10998 $x3395 $x5461 $x4226 (= ?x4153 (stack_s x_0 x_SSTORE_0 x_CALLVALUE 3 (bvadd (_ bv62 6) ?x3851))) (= ?x5520 (stack_s x_0 x_SSTORE_0 x_CALLVALUE 3 (bvadd (_ bv63 6) ?x3851))) $x6555 $x9390 $x9207 $x10464 $x1118 $x6862 (= (used_gas_s x_0 x_SSTORE_0 x_CALLVALUE 5) (+ ?x11022 ?x6386)) (= ?x4319 ?x9053) $x6491 $x6195 (= (stack_t x_0 x_SSTORE_0 x_CALLVALUE 1 ?x63) x_CALLVALUE) (= (used_gas_t x_0 x_SSTORE_0 x_CALLVALUE 1) (+ 2 ?x4512)) $x9898 $x747 $x6061 $x3469 (= ?x4320 (stack_t x_0 x_SSTORE_0 x_CALLVALUE 1 (bvadd (_ bv62 6) ?x9666))) (= ?x1948 (stack_t x_0 x_SSTORE_0 x_CALLVALUE 1 (bvadd (_ bv63 6) ?x9666))) $x2770 $x5665 $x10359 $x10511 $x8101 $x1135 (= ?x10299 (+ ?x7605 ?x7385)) (= (sc_t 3) ?x5841) $x2444 $x5844 (= (stack_t x_0 x_SSTORE_0 x_CALLVALUE 4 (sc_t 3)) x_CALLVALUE) $x7714 $x7253 $x6710 $x6817 $x4304 $x73 $x6728 $x58 $x1215 $x9627 (not (and $x3074 $x10490 $x1994 $x6795))))))))))))))))))))))))))))))))))))))))))))))))))))))))))))))))))))))))))))))))))))))))))))))))))))))))
 )
(check-sat)
(get-proof)
